100	2475
1	2	1
1	3	1
1	4	1
2	4	1
1	6	1
3	6	1
5	6	1
1	7	1
4	7	1
5	7	1
3	8	1
6	8	1
1	9	1
5	9	1
6	9	1
3	10	1
6	10	1
9	10	1
4	11	1
5	11	1
8	11	1
9	11	1
1	12	1
2	12	1
3	12	1
4	12	1
6	12	1
9	12	1
4	13	1
6	13	1
8	13	1
9	13	1
11	13	1
2	14	1
4	14	1
6	14	1
8	14	1
9	14	1
10	14	1
11	14	1
13	14	1
1	15	1
2	15	1
4	15	1
9	15	1
10	15	1
11	15	1
12	15	1
2	16	1
3	16	1
4	16	1
5	16	1
8	16	1
9	16	1
13	16	1
14	16	1
2	17	1
5	17	1
15	17	1
16	17	1
2	18	1
6	18	1
9	18	1
10	18	1
11	18	1
12	18	1
15	18	1
17	18	1
1	19	1
3	19	1
5	19	1
7	19	1
9	19	1
12	19	1
14	19	1
15	19	1
17	19	1
18	19	1
2	20	1
3	20	1
4	20	1
5	20	1
7	20	1
8	20	1
9	20	1
11	20	1
12	20	1
13	20	1
14	20	1
15	20	1
17	20	1
18	20	1
7	21	1
8	21	1
9	21	1
11	21	1
13	21	1
14	21	1
15	21	1
17	21	1
18	21	1
19	21	1
20	21	1
1	22	1
3	22	1
4	22	1
5	22	1
8	22	1
10	22	1
11	22	1
12	22	1
14	22	1
15	22	1
18	22	1
19	22	1
20	22	1
1	23	1
5	23	1
7	23	1
8	23	1
12	23	1
16	23	1
18	23	1
20	23	1
21	23	1
22	23	1
4	24	1
5	24	1
6	24	1
7	24	1
8	24	1
11	24	1
12	24	1
13	24	1
14	24	1
15	24	1
16	24	1
18	24	1
20	24	1
22	24	1
1	25	1
2	25	1
3	25	1
5	25	1
6	25	1
9	25	1
13	25	1
15	25	1
2	26	1
3	26	1
4	26	1
10	26	1
11	26	1
12	26	1
15	26	1
18	26	1
21	26	1
22	26	1
24	26	1
25	26	1
1	27	1
4	27	1
5	27	1
8	27	1
9	27	1
10	27	1
14	27	1
17	27	1
18	27	1
21	27	1
22	27	1
23	27	1
25	27	1
1	28	1
3	28	1
4	28	1
5	28	1
9	28	1
12	28	1
13	28	1
15	28	1
16	28	1
17	28	1
18	28	1
20	28	1
22	28	1
25	28	1
2	29	1
3	29	1
4	29	1
5	29	1
6	29	1
9	29	1
10	29	1
11	29	1
14	29	1
16	29	1
18	29	1
19	29	1
21	29	1
22	29	1
23	29	1
25	29	1
28	29	1
1	30	1
2	30	1
5	30	1
6	30	1
12	30	1
14	30	1
15	30	1
17	30	1
22	30	1
25	30	1
26	30	1
27	30	1
28	30	1
29	30	1
3	31	1
6	31	1
7	31	1
8	31	1
15	31	1
17	31	1
19	31	1
20	31	1
21	31	1
22	31	1
27	31	1
30	31	1
2	32	1
6	32	1
7	32	1
8	32	1
10	32	1
13	32	1
14	32	1
16	32	1
17	32	1
18	32	1
19	32	1
22	32	1
23	32	1
26	32	1
27	32	1
28	32	1
29	32	1
30	32	1
5	33	1
7	33	1
10	33	1
11	33	1
14	33	1
15	33	1
16	33	1
17	33	1
18	33	1
20	33	1
22	33	1
24	33	1
25	33	1
26	33	1
28	33	1
29	33	1
30	33	1
1	34	1
2	34	1
6	34	1
8	34	1
11	34	1
12	34	1
13	34	1
14	34	1
17	34	1
18	34	1
20	34	1
21	34	1
22	34	1
24	34	1
25	34	1
26	34	1
27	34	1
28	34	1
29	34	1
8	35	1
9	35	1
10	35	1
11	35	1
14	35	1
15	35	1
16	35	1
17	35	1
19	35	1
20	35	1
21	35	1
24	35	1
27	35	1
30	35	1
31	35	1
2	36	1
3	36	1
5	36	1
8	36	1
10	36	1
11	36	1
13	36	1
14	36	1
15	36	1
16	36	1
17	36	1
18	36	1
22	36	1
27	36	1
28	36	1
31	36	1
33	36	1
35	36	1
1	37	1
2	37	1
5	37	1
6	37	1
10	37	1
11	37	1
13	37	1
16	37	1
19	37	1
20	37	1
24	37	1
25	37	1
26	37	1
27	37	1
29	37	1
31	37	1
32	37	1
33	37	1
34	37	1
36	37	1
1	38	1
2	38	1
3	38	1
7	38	1
8	38	1
9	38	1
14	38	1
17	38	1
18	38	1
21	38	1
24	38	1
25	38	1
29	38	1
30	38	1
32	38	1
36	38	1
1	39	1
2	39	1
4	39	1
7	39	1
8	39	1
10	39	1
11	39	1
12	39	1
15	39	1
17	39	1
19	39	1
20	39	1
21	39	1
26	39	1
27	39	1
28	39	1
30	39	1
32	39	1
33	39	1
36	39	1
37	39	1
38	39	1
2	40	1
6	40	1
12	40	1
17	40	1
18	40	1
20	40	1
22	40	1
23	40	1
25	40	1
26	40	1
29	40	1
31	40	1
35	40	1
37	40	1
38	40	1
39	40	1
1	41	1
2	41	1
3	41	1
5	41	1
6	41	1
7	41	1
8	41	1
9	41	1
11	41	1
16	41	1
17	41	1
19	41	1
20	41	1
22	41	1
23	41	1
25	41	1
28	41	1
29	41	1
31	41	1
32	41	1
34	41	1
36	41	1
37	41	1
39	41	1
40	41	1
3	42	1
4	42	1
5	42	1
7	42	1
10	42	1
11	42	1
14	42	1
16	42	1
17	42	1
19	42	1
20	42	1
25	42	1
26	42	1
34	42	1
35	42	1
38	42	1
41	42	1
1	43	1
3	43	1
4	43	1
6	43	1
11	43	1
13	43	1
17	43	1
18	43	1
19	43	1
21	43	1
23	43	1
26	43	1
27	43	1
28	43	1
29	43	1
31	43	1
37	43	1
42	43	1
1	44	1
7	44	1
10	44	1
12	44	1
17	44	1
18	44	1
20	44	1
21	44	1
25	44	1
28	44	1
29	44	1
33	44	1
34	44	1
38	44	1
40	44	1
41	44	1
42	44	1
43	44	1
1	45	1
3	45	1
6	45	1
13	45	1
14	45	1
15	45	1
16	45	1
19	45	1
20	45	1
22	45	1
23	45	1
24	45	1
26	45	1
27	45	1
30	45	1
31	45	1
32	45	1
34	45	1
35	45	1
37	45	1
41	45	1
44	45	1
2	46	1
4	46	1
5	46	1
6	46	1
7	46	1
8	46	1
10	46	1
11	46	1
12	46	1
18	46	1
19	46	1
20	46	1
21	46	1
22	46	1
23	46	1
24	46	1
27	46	1
28	46	1
29	46	1
30	46	1
32	46	1
33	46	1
35	46	1
42	46	1
44	46	1
1	47	1
3	47	1
5	47	1
8	47	1
10	47	1
11	47	1
12	47	1
14	47	1
16	47	1
17	47	1
18	47	1
20	47	1
22	47	1
23	47	1
24	47	1
25	47	1
30	47	1
31	47	1
35	47	1
36	47	1
37	47	1
38	47	1
43	47	1
45	47	1
2	48	1
3	48	1
4	48	1
11	48	1
13	48	1
14	48	1
15	48	1
19	48	1
20	48	1
21	48	1
22	48	1
24	48	1
28	48	1
30	48	1
34	48	1
36	48	1
37	48	1
38	48	1
39	48	1
42	48	1
44	48	1
46	48	1
1	49	1
2	49	1
5	49	1
6	49	1
7	49	1
10	49	1
14	49	1
15	49	1
16	49	1
17	49	1
19	49	1
21	49	1
22	49	1
23	49	1
25	49	1
27	49	1
32	49	1
35	49	1
37	49	1
38	49	1
39	49	1
40	49	1
41	49	1
42	49	1
44	49	1
46	49	1
47	49	1
3	50	1
4	50	1
5	50	1
9	50	1
10	50	1
11	50	1
12	50	1
17	50	1
20	50	1
22	50	1
26	50	1
28	50	1
29	50	1
30	50	1
32	50	1
33	50	1
36	50	1
38	50	1
39	50	1
40	50	1
41	50	1
44	50	1
45	50	1
48	50	1
6	51	1
9	51	1
11	51	1
12	51	1
17	51	1
18	51	1
19	51	1
20	51	1
21	51	1
23	51	1
25	51	1
27	51	1
29	51	1
31	51	1
32	51	1
33	51	1
34	51	1
38	51	1
39	51	1
40	51	1
42	51	1
43	51	1
47	51	1
48	51	1
50	51	1
2	52	1
3	52	1
4	52	1
6	52	1
7	52	1
9	52	1
14	52	1
15	52	1
16	52	1
17	52	1
18	52	1
19	52	1
20	52	1
22	52	1
27	52	1
29	52	1
30	52	1
33	52	1
34	52	1
35	52	1
36	52	1
37	52	1
38	52	1
44	52	1
47	52	1
48	52	1
1	53	1
3	53	1
4	53	1
8	53	1
13	53	1
14	53	1
15	53	1
16	53	1
17	53	1
18	53	1
22	53	1
23	53	1
24	53	1
26	53	1
27	53	1
28	53	1
29	53	1
33	53	1
34	53	1
35	53	1
37	53	1
39	53	1
40	53	1
41	53	1
50	53	1
51	53	1
52	53	1
2	54	1
3	54	1
5	54	1
6	54	1
7	54	1
8	54	1
9	54	1
10	54	1
12	54	1
13	54	1
17	54	1
18	54	1
20	54	1
21	54	1
22	54	1
23	54	1
24	54	1
26	54	1
28	54	1
29	54	1
31	54	1
34	54	1
41	54	1
42	54	1
43	54	1
45	54	1
48	54	1
49	54	1
50	54	1
51	54	1
2	55	1
3	55	1
11	55	1
12	55	1
18	55	1
20	55	1
24	55	1
27	55	1
28	55	1
29	55	1
32	55	1
33	55	1
36	55	1
37	55	1
38	55	1
39	55	1
42	55	1
43	55	1
48	55	1
52	55	1
53	55	1
2	56	1
5	56	1
6	56	1
7	56	1
8	56	1
9	56	1
10	56	1
11	56	1
12	56	1
15	56	1
16	56	1
19	56	1
22	56	1
23	56	1
27	56	1
28	56	1
31	56	1
36	56	1
37	56	1
40	56	1
42	56	1
47	56	1
48	56	1
50	56	1
51	56	1
52	56	1
54	56	1
55	56	1
1	57	1
2	57	1
3	57	1
4	57	1
6	57	1
8	57	1
9	57	1
10	57	1
13	57	1
14	57	1
15	57	1
18	57	1
19	57	1
23	57	1
26	57	1
27	57	1
28	57	1
31	57	1
32	57	1
34	57	1
37	57	1
39	57	1
41	57	1
43	57	1
44	57	1
46	57	1
48	57	1
51	57	1
52	57	1
53	57	1
1	58	1
3	58	1
7	58	1
8	58	1
10	58	1
11	58	1
12	58	1
15	58	1
17	58	1
19	58	1
21	58	1
23	58	1
24	58	1
26	58	1
27	58	1
29	58	1
30	58	1
33	58	1
34	58	1
38	58	1
39	58	1
40	58	1
43	58	1
45	58	1
46	58	1
49	58	1
51	58	1
55	58	1
2	59	1
4	59	1
6	59	1
7	59	1
12	59	1
16	59	1
18	59	1
20	59	1
26	59	1
27	59	1
29	59	1
32	59	1
35	59	1
37	59	1
38	59	1
39	59	1
42	59	1
44	59	1
46	59	1
47	59	1
48	59	1
49	59	1
50	59	1
53	59	1
55	59	1
57	59	1
2	60	1
3	60	1
5	60	1
6	60	1
7	60	1
9	60	1
10	60	1
11	60	1
14	60	1
16	60	1
17	60	1
18	60	1
19	60	1
21	60	1
26	60	1
28	60	1
29	60	1
31	60	1
32	60	1
34	60	1
35	60	1
39	60	1
41	60	1
42	60	1
44	60	1
45	60	1
46	60	1
47	60	1
48	60	1
51	60	1
56	60	1
57	60	1
3	61	1
9	61	1
15	61	1
18	61	1
19	61	1
21	61	1
24	61	1
27	61	1
29	61	1
30	61	1
31	61	1
34	61	1
37	61	1
39	61	1
40	61	1
42	61	1
43	61	1
44	61	1
45	61	1
48	61	1
49	61	1
50	61	1
52	61	1
53	61	1
58	61	1
59	61	1
1	62	1
3	62	1
6	62	1
7	62	1
8	62	1
11	62	1
13	62	1
16	62	1
18	62	1
21	62	1
25	62	1
26	62	1
29	62	1
30	62	1
34	62	1
35	62	1
44	62	1
45	62	1
46	62	1
47	62	1
50	62	1
51	62	1
52	62	1
56	62	1
57	62	1
58	62	1
59	62	1
60	62	1
61	62	1
3	63	1
5	63	1
7	63	1
17	63	1
19	63	1
20	63	1
21	63	1
22	63	1
25	63	1
27	63	1
29	63	1
32	63	1
35	63	1
39	63	1
40	63	1
41	63	1
42	63	1
44	63	1
47	63	1
48	63	1
49	63	1
50	63	1
51	63	1
52	63	1
56	63	1
60	63	1
61	63	1
4	64	1
5	64	1
6	64	1
9	64	1
10	64	1
11	64	1
13	64	1
14	64	1
17	64	1
18	64	1
21	64	1
24	64	1
30	64	1
31	64	1
34	64	1
36	64	1
37	64	1
39	64	1
41	64	1
44	64	1
49	64	1
53	64	1
54	64	1
55	64	1
56	64	1
58	64	1
59	64	1
60	64	1
1	65	1
2	65	1
3	65	1
4	65	1
5	65	1
6	65	1
8	65	1
9	65	1
10	65	1
11	65	1
12	65	1
14	65	1
15	65	1
16	65	1
21	65	1
25	65	1
28	65	1
29	65	1
33	65	1
36	65	1
39	65	1
41	65	1
42	65	1
43	65	1
45	65	1
48	65	1
49	65	1
51	65	1
57	65	1
58	65	1
59	65	1
63	65	1
2	66	1
3	66	1
5	66	1
6	66	1
8	66	1
10	66	1
12	66	1
13	66	1
14	66	1
15	66	1
19	66	1
23	66	1
24	66	1
25	66	1
26	66	1
29	66	1
31	66	1
32	66	1
33	66	1
37	66	1
38	66	1
40	66	1
43	66	1
44	66	1
46	66	1
47	66	1
52	66	1
53	66	1
54	66	1
55	66	1
57	66	1
61	66	1
62	66	1
63	66	1
1	67	1
2	67	1
8	67	1
9	67	1
14	67	1
15	67	1
17	67	1
20	67	1
23	67	1
24	67	1
25	67	1
30	67	1
31	67	1
34	67	1
36	67	1
38	67	1
41	67	1
42	67	1
46	67	1
48	67	1
54	67	1
55	67	1
57	67	1
58	67	1
59	67	1
60	67	1
61	67	1
2	68	1
3	68	1
5	68	1
6	68	1
7	68	1
8	68	1
9	68	1
10	68	1
11	68	1
12	68	1
14	68	1
16	68	1
17	68	1
18	68	1
20	68	1
21	68	1
24	68	1
26	68	1
27	68	1
30	68	1
32	68	1
33	68	1
34	68	1
35	68	1
37	68	1
40	68	1
47	68	1
49	68	1
52	68	1
54	68	1
58	68	1
59	68	1
60	68	1
62	68	1
63	68	1
64	68	1
65	68	1
3	69	1
4	69	1
5	69	1
6	69	1
7	69	1
9	69	1
11	69	1
14	69	1
16	69	1
18	69	1
21	69	1
22	69	1
26	69	1
29	69	1
30	69	1
33	69	1
38	69	1
39	69	1
42	69	1
43	69	1
44	69	1
46	69	1
48	69	1
49	69	1
50	69	1
54	69	1
56	69	1
59	69	1
60	69	1
61	69	1
62	69	1
63	69	1
64	69	1
67	69	1
3	70	1
6	70	1
8	70	1
9	70	1
10	70	1
13	70	1
15	70	1
16	70	1
19	70	1
20	70	1
22	70	1
24	70	1
26	70	1
29	70	1
32	70	1
37	70	1
39	70	1
40	70	1
41	70	1
51	70	1
52	70	1
53	70	1
54	70	1
56	70	1
57	70	1
58	70	1
62	70	1
63	70	1
64	70	1
1	71	1
4	71	1
5	71	1
9	71	1
11	71	1
12	71	1
13	71	1
14	71	1
16	71	1
19	71	1
20	71	1
21	71	1
25	71	1
27	71	1
32	71	1
33	71	1
34	71	1
35	71	1
39	71	1
40	71	1
41	71	1
44	71	1
45	71	1
46	71	1
47	71	1
49	71	1
50	71	1
52	71	1
55	71	1
56	71	1
58	71	1
59	71	1
64	71	1
66	71	1
67	71	1
70	71	1
3	72	1
4	72	1
5	72	1
12	72	1
13	72	1
15	72	1
16	72	1
20	72	1
24	72	1
27	72	1
28	72	1
30	72	1
34	72	1
35	72	1
36	72	1
37	72	1
38	72	1
40	72	1
41	72	1
45	72	1
46	72	1
47	72	1
51	72	1
55	72	1
57	72	1
58	72	1
63	72	1
65	72	1
66	72	1
2	73	1
3	73	1
6	73	1
7	73	1
9	73	1
13	73	1
16	73	1
17	73	1
19	73	1
20	73	1
21	73	1
24	73	1
25	73	1
27	73	1
29	73	1
31	73	1
32	73	1
36	73	1
37	73	1
38	73	1
39	73	1
42	73	1
45	73	1
46	73	1
47	73	1
49	73	1
50	73	1
51	73	1
53	73	1
54	73	1
55	73	1
56	73	1
58	73	1
59	73	1
61	73	1
62	73	1
63	73	1
64	73	1
68	73	1
69	73	1
70	73	1
4	74	1
6	74	1
7	74	1
10	74	1
11	74	1
14	74	1
16	74	1
19	74	1
20	74	1
21	74	1
24	74	1
25	74	1
30	74	1
32	74	1
36	74	1
37	74	1
40	74	1
41	74	1
46	74	1
47	74	1
48	74	1
52	74	1
53	74	1
56	74	1
61	74	1
66	74	1
67	74	1
68	74	1
69	74	1
73	74	1
5	75	1
6	75	1
7	75	1
11	75	1
12	75	1
16	75	1
19	75	1
24	75	1
25	75	1
26	75	1
27	75	1
28	75	1
29	75	1
30	75	1
31	75	1
32	75	1
35	75	1
36	75	1
38	75	1
41	75	1
46	75	1
50	75	1
51	75	1
53	75	1
55	75	1
56	75	1
57	75	1
59	75	1
60	75	1
61	75	1
68	75	1
69	75	1
71	75	1
4	76	1
5	76	1
6	76	1
9	76	1
10	76	1
15	76	1
16	76	1
17	76	1
18	76	1
19	76	1
20	76	1
23	76	1
25	76	1
26	76	1
27	76	1
29	76	1
32	76	1
35	76	1
36	76	1
40	76	1
42	76	1
48	76	1
49	76	1
50	76	1
51	76	1
52	76	1
53	76	1
57	76	1
61	76	1
62	76	1
63	76	1
64	76	1
67	76	1
68	76	1
70	76	1
71	76	1
72	76	1
73	76	1
2	77	1
3	77	1
10	77	1
11	77	1
14	77	1
15	77	1
16	77	1
18	77	1
19	77	1
22	77	1
27	77	1
29	77	1
32	77	1
33	77	1
34	77	1
35	77	1
36	77	1
37	77	1
38	77	1
39	77	1
40	77	1
41	77	1
43	77	1
44	77	1
45	77	1
47	77	1
48	77	1
49	77	1
54	77	1
55	77	1
57	77	1
58	77	1
59	77	1
60	77	1
61	77	1
62	77	1
66	77	1
68	77	1
69	77	1
70	77	1
73	77	1
75	77	1
76	77	1
1	78	1
4	78	1
5	78	1
6	78	1
8	78	1
9	78	1
12	78	1
14	78	1
15	78	1
16	78	1
17	78	1
18	78	1
20	78	1
21	78	1
22	78	1
23	78	1
28	78	1
31	78	1
32	78	1
34	78	1
37	78	1
38	78	1
41	78	1
42	78	1
43	78	1
45	78	1
47	78	1
48	78	1
51	78	1
54	78	1
55	78	1
57	78	1
59	78	1
64	78	1
65	78	1
67	78	1
68	78	1
70	78	1
73	78	1
74	78	1
75	78	1
77	78	1
1	79	1
3	79	1
4	79	1
6	79	1
7	79	1
9	79	1
11	79	1
12	79	1
16	79	1
20	79	1
21	79	1
23	79	1
24	79	1
25	79	1
27	79	1
28	79	1
30	79	1
31	79	1
34	79	1
35	79	1
36	79	1
37	79	1
39	79	1
40	79	1
41	79	1
42	79	1
43	79	1
44	79	1
45	79	1
47	79	1
48	79	1
51	79	1
55	79	1
56	79	1
58	79	1
62	79	1
64	79	1
70	79	1
71	79	1
73	79	1
1	80	1
3	80	1
13	80	1
15	80	1
17	80	1
19	80	1
20	80	1
21	80	1
22	80	1
25	80	1
26	80	1
29	80	1
34	80	1
38	80	1
41	80	1
42	80	1
43	80	1
44	80	1
45	80	1
46	80	1
47	80	1
48	80	1
49	80	1
51	80	1
52	80	1
59	80	1
62	80	1
63	80	1
64	80	1
67	80	1
69	80	1
70	80	1
74	80	1
77	80	1
78	80	1
79	80	1
2	81	1
3	81	1
4	81	1
5	81	1
8	81	1
12	81	1
14	81	1
15	81	1
19	81	1
22	81	1
23	81	1
24	81	1
25	81	1
26	81	1
28	81	1
29	81	1
32	81	1
33	81	1
35	81	1
40	81	1
41	81	1
42	81	1
43	81	1
45	81	1
48	81	1
50	81	1
51	81	1
52	81	1
53	81	1
56	81	1
57	81	1
60	81	1
61	81	1
62	81	1
67	81	1
69	81	1
70	81	1
71	81	1
72	81	1
73	81	1
77	81	1
78	81	1
80	81	1
4	82	1
9	82	1
10	82	1
11	82	1
13	82	1
14	82	1
15	82	1
16	82	1
18	82	1
19	82	1
22	82	1
26	82	1
27	82	1
29	82	1
32	82	1
33	82	1
34	82	1
36	82	1
37	82	1
39	82	1
40	82	1
41	82	1
42	82	1
43	82	1
46	82	1
47	82	1
48	82	1
52	82	1
54	82	1
55	82	1
56	82	1
57	82	1
63	82	1
68	82	1
69	82	1
71	82	1
72	82	1
73	82	1
76	82	1
78	82	1
81	82	1
4	83	1
5	83	1
6	83	1
8	83	1
9	83	1
13	83	1
14	83	1
20	83	1
21	83	1
24	83	1
25	83	1
26	83	1
28	83	1
29	83	1
31	83	1
33	83	1
34	83	1
39	83	1
40	83	1
46	83	1
48	83	1
49	83	1
50	83	1
51	83	1
53	83	1
55	83	1
56	83	1
57	83	1
59	83	1
61	83	1
62	83	1
63	83	1
64	83	1
66	83	1
68	83	1
75	83	1
78	83	1
81	83	1
82	83	1
2	84	1
6	84	1
8	84	1
11	84	1
12	84	1
13	84	1
14	84	1
16	84	1
17	84	1
18	84	1
19	84	1
21	84	1
23	84	1
24	84	1
26	84	1
28	84	1
29	84	1
30	84	1
36	84	1
38	84	1
40	84	1
45	84	1
46	84	1
47	84	1
48	84	1
49	84	1
51	84	1
52	84	1
54	84	1
55	84	1
57	84	1
62	84	1
66	84	1
67	84	1
70	84	1
76	84	1
77	84	1
78	84	1
80	84	1
81	84	1
1	85	1
4	85	1
6	85	1
7	85	1
9	85	1
11	85	1
12	85	1
15	85	1
16	85	1
19	85	1
20	85	1
22	85	1
24	85	1
25	85	1
26	85	1
31	85	1
33	85	1
34	85	1
35	85	1
37	85	1
40	85	1
41	85	1
44	85	1
45	85	1
48	85	1
49	85	1
53	85	1
55	85	1
58	85	1
59	85	1
60	85	1
61	85	1
63	85	1
65	85	1
66	85	1
68	85	1
69	85	1
70	85	1
71	85	1
74	85	1
78	85	1
79	85	1
2	86	1
4	86	1
6	86	1
7	86	1
9	86	1
10	86	1
11	86	1
13	86	1
16	86	1
17	86	1
21	86	1
22	86	1
23	86	1
25	86	1
27	86	1
28	86	1
30	86	1
33	86	1
35	86	1
37	86	1
39	86	1
40	86	1
41	86	1
45	86	1
47	86	1
48	86	1
50	86	1
51	86	1
52	86	1
54	86	1
55	86	1
58	86	1
59	86	1
63	86	1
64	86	1
67	86	1
68	86	1
73	86	1
81	86	1
82	86	1
83	86	1
84	86	1
1	87	1
2	87	1
5	87	1
6	87	1
8	87	1
9	87	1
10	87	1
11	87	1
12	87	1
15	87	1
16	87	1
17	87	1
19	87	1
23	87	1
26	87	1
28	87	1
29	87	1
30	87	1
31	87	1
35	87	1
37	87	1
41	87	1
43	87	1
46	87	1
47	87	1
48	87	1
51	87	1
52	87	1
53	87	1
54	87	1
55	87	1
56	87	1
57	87	1
59	87	1
60	87	1
62	87	1
65	87	1
66	87	1
67	87	1
68	87	1
70	87	1
71	87	1
72	87	1
75	87	1
76	87	1
77	87	1
82	87	1
83	87	1
86	87	1
1	88	1
2	88	1
7	88	1
11	88	1
13	88	1
14	88	1
15	88	1
16	88	1
17	88	1
18	88	1
27	88	1
28	88	1
29	88	1
32	88	1
33	88	1
34	88	1
35	88	1
38	88	1
39	88	1
40	88	1
41	88	1
43	88	1
45	88	1
48	88	1
50	88	1
51	88	1
53	88	1
54	88	1
57	88	1
62	88	1
64	88	1
65	88	1
70	88	1
72	88	1
73	88	1
75	88	1
76	88	1
77	88	1
78	88	1
80	88	1
84	88	1
85	88	1
87	88	1
1	89	1
3	89	1
6	89	1
8	89	1
9	89	1
10	89	1
11	89	1
13	89	1
14	89	1
15	89	1
16	89	1
17	89	1
18	89	1
19	89	1
20	89	1
21	89	1
22	89	1
23	89	1
28	89	1
30	89	1
31	89	1
32	89	1
34	89	1
35	89	1
36	89	1
38	89	1
39	89	1
40	89	1
42	89	1
43	89	1
45	89	1
46	89	1
47	89	1
48	89	1
50	89	1
53	89	1
54	89	1
55	89	1
57	89	1
58	89	1
61	89	1
62	89	1
63	89	1
64	89	1
65	89	1
67	89	1
68	89	1
69	89	1
71	89	1
73	89	1
74	89	1
75	89	1
76	89	1
78	89	1
79	89	1
80	89	1
84	89	1
88	89	1
3	90	1
4	90	1
7	90	1
8	90	1
11	90	1
13	90	1
14	90	1
16	90	1
17	90	1
22	90	1
24	90	1
25	90	1
26	90	1
28	90	1
29	90	1
30	90	1
31	90	1
32	90	1
33	90	1
38	90	1
42	90	1
46	90	1
47	90	1
50	90	1
52	90	1
54	90	1
55	90	1
56	90	1
59	90	1
61	90	1
62	90	1
64	90	1
65	90	1
69	90	1
70	90	1
73	90	1
74	90	1
76	90	1
77	90	1
78	90	1
79	90	1
80	90	1
82	90	1
86	90	1
1	91	1
2	91	1
6	91	1
9	91	1
11	91	1
19	91	1
23	91	1
24	91	1
26	91	1
27	91	1
32	91	1
33	91	1
34	91	1
36	91	1
37	91	1
40	91	1
43	91	1
45	91	1
46	91	1
48	91	1
49	91	1
51	91	1
52	91	1
53	91	1
54	91	1
61	91	1
63	91	1
72	91	1
79	91	1
82	91	1
83	91	1
84	91	1
86	91	1
87	91	1
1	92	1
2	92	1
5	92	1
6	92	1
7	92	1
8	92	1
10	92	1
11	92	1
13	92	1
14	92	1
16	92	1
17	92	1
24	92	1
26	92	1
28	92	1
30	92	1
31	92	1
32	92	1
33	92	1
36	92	1
38	92	1
42	92	1
43	92	1
45	92	1
48	92	1
49	92	1
50	92	1
53	92	1
56	92	1
57	92	1
58	92	1
59	92	1
63	92	1
65	92	1
66	92	1
67	92	1
69	92	1
72	92	1
74	92	1
75	92	1
77	92	1
78	92	1
80	92	1
82	92	1
83	92	1
86	92	1
90	92	1
91	92	1
1	93	1
2	93	1
7	93	1
9	93	1
12	93	1
13	93	1
17	93	1
19	93	1
22	93	1
23	93	1
24	93	1
25	93	1
31	93	1
37	93	1
40	93	1
43	93	1
44	93	1
45	93	1
49	93	1
53	93	1
54	93	1
56	93	1
59	93	1
60	93	1
61	93	1
62	93	1
63	93	1
65	93	1
66	93	1
67	93	1
68	93	1
69	93	1
70	93	1
71	93	1
72	93	1
75	93	1
77	93	1
78	93	1
81	93	1
83	93	1
86	93	1
87	93	1
89	93	1
90	93	1
91	93	1
3	94	1
5	94	1
6	94	1
8	94	1
9	94	1
11	94	1
14	94	1
15	94	1
17	94	1
21	94	1
22	94	1
25	94	1
26	94	1
27	94	1
28	94	1
31	94	1
32	94	1
34	94	1
39	94	1
44	94	1
45	94	1
47	94	1
49	94	1
53	94	1
54	94	1
56	94	1
58	94	1
62	94	1
64	94	1
66	94	1
72	94	1
73	94	1
76	94	1
77	94	1
79	94	1
81	94	1
85	94	1
86	94	1
87	94	1
90	94	1
91	94	1
92	94	1
1	95	1
2	95	1
3	95	1
4	95	1
8	95	1
11	95	1
13	95	1
14	95	1
19	95	1
20	95	1
22	95	1
25	95	1
26	95	1
27	95	1
32	95	1
33	95	1
34	95	1
36	95	1
39	95	1
40	95	1
43	95	1
47	95	1
48	95	1
51	95	1
52	95	1
53	95	1
54	95	1
55	95	1
56	95	1
57	95	1
59	95	1
60	95	1
62	95	1
64	95	1
65	95	1
67	95	1
68	95	1
71	95	1
73	95	1
75	95	1
77	95	1
78	95	1
82	95	1
83	95	1
84	95	1
85	95	1
86	95	1
87	95	1
89	95	1
90	95	1
91	95	1
92	95	1
93	95	1
3	96	1
5	96	1
6	96	1
7	96	1
10	96	1
11	96	1
14	96	1
17	96	1
20	96	1
21	96	1
23	96	1
25	96	1
28	96	1
30	96	1
32	96	1
34	96	1
35	96	1
36	96	1
37	96	1
40	96	1
41	96	1
43	96	1
45	96	1
48	96	1
49	96	1
50	96	1
52	96	1
54	96	1
56	96	1
58	96	1
60	96	1
62	96	1
63	96	1
65	96	1
66	96	1
70	96	1
71	96	1
75	96	1
77	96	1
79	96	1
80	96	1
81	96	1
82	96	1
83	96	1
84	96	1
85	96	1
88	96	1
89	96	1
90	96	1
91	96	1
92	96	1
93	96	1
95	96	1
2	97	1
4	97	1
5	97	1
6	97	1
9	97	1
10	97	1
13	97	1
16	97	1
18	97	1
19	97	1
21	97	1
22	97	1
25	97	1
27	97	1
28	97	1
30	97	1
32	97	1
33	97	1
35	97	1
36	97	1
38	97	1
39	97	1
40	97	1
42	97	1
47	97	1
48	97	1
50	97	1
53	97	1
55	97	1
57	97	1
58	97	1
59	97	1
61	97	1
65	97	1
66	97	1
67	97	1
68	97	1
69	97	1
71	97	1
73	97	1
75	97	1
76	97	1
78	97	1
80	97	1
82	97	1
83	97	1
85	97	1
95	97	1
96	97	1
3	98	1
4	98	1
5	98	1
6	98	1
10	98	1
11	98	1
12	98	1
13	98	1
14	98	1
15	98	1
17	98	1
19	98	1
21	98	1
23	98	1
27	98	1
29	98	1
30	98	1
31	98	1
34	98	1
36	98	1
37	98	1
39	98	1
44	98	1
45	98	1
47	98	1
48	98	1
49	98	1
52	98	1
56	98	1
60	98	1
62	98	1
63	98	1
64	98	1
65	98	1
67	98	1
68	98	1
70	98	1
71	98	1
72	98	1
74	98	1
75	98	1
76	98	1
81	98	1
82	98	1
83	98	1
86	98	1
88	98	1
90	98	1
91	98	1
93	98	1
94	98	1
96	98	1
97	98	1
1	99	1
3	99	1
4	99	1
5	99	1
7	99	1
10	99	1
11	99	1
13	99	1
15	99	1
16	99	1
19	99	1
20	99	1
24	99	1
25	99	1
29	99	1
30	99	1
32	99	1
34	99	1
35	99	1
38	99	1
39	99	1
40	99	1
42	99	1
46	99	1
49	99	1
50	99	1
51	99	1
55	99	1
57	99	1
58	99	1
61	99	1
62	99	1
64	99	1
65	99	1
67	99	1
69	99	1
70	99	1
71	99	1
72	99	1
74	99	1
76	99	1
77	99	1
78	99	1
79	99	1
81	99	1
82	99	1
85	99	1
89	99	1
93	99	1
97	99	1
98	99	1
2	100	1
4	100	1
5	100	1
7	100	1
8	100	1
12	100	1
13	100	1
15	100	1
16	100	1
17	100	1
18	100	1
19	100	1
26	100	1
27	100	1
32	100	1
35	100	1
39	100	1
41	100	1
43	100	1
45	100	1
47	100	1
48	100	1
49	100	1
51	100	1
52	100	1
55	100	1
58	100	1
59	100	1
60	100	1
61	100	1
62	100	1
65	100	1
67	100	1
68	100	1
69	100	1
71	100	1
74	100	1
75	100	1
76	100	1
78	100	1
81	100	1
84	100	1
86	100	1
88	100	1
92	100	1
93	100	1
94	100	1
95	100	1
97	100	1
